clingo version 5.5.2
Reading from stdin
Solving...
UNSATISFIABLE

Models       : 0
Calls        : 1
Time         : 22.584s (Solving: 0.01s 1st Model: 0.00s Unsat: 0.01s)
CPU Time     : 19.328s

Choices      : 1       
Conflicts    : 2        (Analyzed: 1)
Restarts     : 0       
Stab. Tests  : 1        (Full: 0 Partial: 1)
Problems     : 1        (Average Length: 0.00 Splits: 0)
Lemmas       : 1        (Deleted: 0)
  Binary     : 0        (Ratio:   0.00%)
  Ternary    : 0        (Ratio:   0.00%)
  Conflict   : 1        (Average Length:    1.0 Ratio: 100.00%) 
  Loop       : 0        (Average Length:    0.0 Ratio:   0.00%) 
  Other      : 0        (Average Length:    0.0 Ratio:   0.00%) 
Backjumps    : 1        (Average:  1.00 Max:   1 Sum:      1)
  Executed   : 1        (Average:  1.00 Max:   1 Sum:      1 Ratio: 100.00%)
  Bounded    : 0        (Average:  0.00 Max:   0 Sum:      0 Ratio:   0.00%)

Rules        : 2816627 
Atoms        : 5325    
Disjunctions : 3        (Original: 3)
Bodies       : 2800006 
Equivalences : 4000     (Atom=Atom: 323 Body=Body: 1241 Other: 2436)
Tight        : No       (SCCs: 2 Non-Hcfs: 1 Nodes: 2751512 Gammas: 0)
Variables    : 2795263  (Eliminated:    0 Frozen: 2751755)
Constraints  : 13965773 (Binary:  80.0% Ternary:   0.0% Other:  20.0%)

